     Program PWSCF v.6.4.1 starts on 25Apr2021 at 16:29:35

     Waiting for input...
     Reading input from standard input

     Current dimensions of program PWSCF are:
     Max number of different atomic species (ntypx) = 10
     Max number of k-points (npk) =  40000
     Max angular momentum in pseudopotentials (lmaxx) =  3
               file Ga.pbe-dn-kjpaw_psl.1.0.0.UPF: wavefunction(s)  4S renormalized

     Subspace diagonalization in iterative solution of the eigenvalue problem:
     a serial algorithm will be used

     Message from routine setup:
     DEPRECATED: symmetry with ibrav=0, use correct ibrav instead

     bravais-lattice index     =            0
     lattice parameter (alat)  =       7.2170  a.u.
     unit-cell volume          =    1517.4191 (a.u.)^3
     number of atoms/cell      =            8
     number of atomic types    =            2
     number of electrons       =        76.00
     number of Kohn-Sham states=           46
     kinetic-energy cutoff     =      70.0000  Ry
     charge density cutoff     =     560.0000  Ry
     convergence threshold     =      1.6E-09
     mixing beta               =       0.4000
     number of iterations used =            8  plain     mixing
     Exchange-correlation      = SLA  PW   PBE  PBE ( 1  4  3  4 0 0)

     celldm(1)=   7.216990  celldm(2)=   0.000000  celldm(3)=   0.000000
     celldm(4)=   0.000000  celldm(5)=   0.000000  celldm(6)=   0.000000

     crystal axes: (cart. coord. in units of alat)
               a(1) = (  -0.500000  -0.866025  -0.000000 )
               a(2) = (  -0.500000   0.866025   0.000000 )
               a(3) = (   0.000000   0.000000  -4.661295 )

     reciprocal axes: (cart. coord. in units 2 pi/alat)
               b(1) = ( -1.000000 -0.577350 -0.000000 )
               b(2) = ( -1.000000  0.577350  0.000000 )
               b(3) = (  0.000000  0.000000 -0.214533 )

     PseudoPot. # 1 for Ga read from file:
     ./pseudo/Ga.pbe-dn-kjpaw_psl.1.0.0.UPF
     MD5 check sum: a27b4342b1af7e5f338de752e9ed7044
     Pseudo is Projector augmented-wave + core cor, Zval = 13.0
     Generated using "atomic" code by A. Dal Corso v.5.1
     Shape of augmentation charge: PSQ
     Using radial grid of 1205 points,  6 beta functions with:
                l(1) =   0
                l(2) =   0
                l(3) =   1
                l(4) =   1
                l(5) =   2
                l(6) =   2
     Q(r) pseudized with 0 coefficients

     PseudoPot. # 2 for Se read from file:
     ./pseudo/Se_pbe_v1.uspp.F.UPF
     MD5 check sum: 1b3568f3a8ae88f9a2a0ad0698632c85
     Pseudo is Ultrasoft + core correction, Zval =  6.0
     Generated by new atomic code, or converted to UPF format
     Using radial grid of  877 points,  6 beta functions with:
                l(1) =   0
                l(2) =   0
                l(3) =   1
                l(4) =   1
                l(5) =   2
                l(6) =   2
     Q(r) pseudized with  8 coefficients,  rinner =    1.300   1.300   1.300
                                                       1.300   1.300

     atomic species   valence    mass     pseudopotential
        Ga            13.00    69.72300     Ga( 1.00)
        Se             6.00    78.96000     Se( 1.00)

     12 Sym. Ops. (no inversion) found

                                    s                        frac. trans.

      isym =  1     identity

 cryst.   s( 1) = (     1          0          0      )
                  (     0          1          0      )
                  (     0          0          1      )

 cart.    s( 1) = (  1.0000000  0.0000000  0.0000000 )
                  (  0.0000000  1.0000000  0.0000000 )
                  (  0.0000000  0.0000000  1.0000000 )

      isym =  2     180 deg rotation - cart. axis [0,1,0]

[...]

      isym =  3     120 deg rotation - cryst. axis [0,0,1]

[...]

      isym =  6     180 deg rotation - cryst. axis [2,1,0]

[...]

      isym =  7     inv. 180 deg rotation - cart. axis [0,0,1]

[...]

      isym =  8     inv. 180 deg rotation - cart. axis [1,0,0]

[...]

      isym =  9     inv.  60 deg rotation - cryst. axis [0,0,1]

 cryst.   s( 9) = (     0          1          0      )
                  (    -1         -1          0      )
                  (     0          0         -1      )

 cart.    s( 9) = ( -0.5000000  0.8660254  0.0000000 )
                  ( -0.8660254 -0.5000000  0.0000000 )
                  (  0.0000000  0.0000000 -1.0000000 )

[...]

 cryst.   s(10) = (    -1         -1          0      )
                  (     1          0          0      )
                  (     0          0         -1      )

 cart.    s(10) = ( -0.5000000 -0.8660254  0.0000000 )
                  (  0.8660254 -0.5000000  0.0000000 )
                  (  0.0000000  0.0000000 -1.0000000 )

[...]

      isym = 12     inv. 180 deg rotation - cryst. axis [1,1,0]

 cryst.   s(12) = (    -1          0          0      )
                  (     1          1          0      )
                  (     0          0          1      )

 cart.    s(12) = (  0.5000000 -0.8660254  0.0000000 )
                  ( -0.8660254 -0.5000000  0.0000000 )
                  (  0.0000000  0.0000000  1.0000000 )

   Cartesian axes

     site n.     atom                  positions (alat units)
         1           Ga  tau(   1) = (   0.0000000   0.0000000  -4.3377730  )
         2           Ga  tau(   2) = (   0.0000000   0.0000000  -0.3235218  )
         3           Ga  tau(   3) = (  -0.5000000   0.2886751  -2.6541413  )
         4           Ga  tau(   4) = (  -0.5000000   0.2886751  -2.0071536  )
         5           Se  tau(   5) = (  -0.5000000   0.2886751  -0.6306685  )
         6           Se  tau(   6) = (  -0.5000000   0.2886751  -4.0306263  )
         7           Se  tau(   7) = (  -0.5000000  -0.2886751  -1.6999416  )
         8           Se  tau(   8) = (  -0.5000000  -0.2886751  -2.9613532  )

   Crystallographic axes

     site n.     atom                  positions (cryst. coord.)
         1           Ga  tau(   1) = (  0.0000000  0.0000000  0.9305940  )
         2           Ga  tau(   2) = (  0.0000000  0.0000000  0.0694060  )
         3           Ga  tau(   3) = (  0.3333333  0.6666667  0.5694000  )
         4           Ga  tau(   4) = (  0.3333333  0.6666667  0.4306000  )
         5           Se  tau(   5) = (  0.3333333  0.6666667  0.1352990  )
         6           Se  tau(   6) = (  0.3333333  0.6666667  0.8647010  )
         7           Se  tau(   7) = (  0.6666667  0.3333333  0.3646930  )
         8           Se  tau(   8) = (  0.6666667  0.3333333  0.6353070  )

     number of k points=    16  Marzari-Vanderbilt smearing, width (Ry)=  0.0220
                       cart. coord. in units 2pi/alat
        k(    1) = (   0.0000000   0.0000000   0.0000000), wk =   0.0204082
        k(    2) = (  -0.0000000   0.0000000   0.1072663), wk =   0.0204082
        k(    3) = (  -0.1428571   0.0824786   0.0000000), wk =   0.1224490
        k(    4) = (  -0.1428571   0.0824786   0.1072663), wk =   0.1224490
        k(    5) = (  -0.2857143   0.1649572   0.0000000), wk =   0.1224490
        k(    6) = (  -0.2857143   0.1649572   0.1072663), wk =   0.1224490
        k(    7) = (  -0.4285714   0.2474358   0.0000000), wk =   0.1224490
        k(    8) = (  -0.4285714   0.2474358   0.1072663), wk =   0.1224490
        k(    9) = (  -0.2857143   0.0000000   0.0000000), wk =   0.1224490
        k(   10) = (  -0.2857143   0.0000000   0.1072663), wk =   0.1224490
        k(   11) = (  -0.4285714   0.0824786   0.0000000), wk =   0.2448980
        k(   12) = (  -0.4285714   0.0824786   0.1072663), wk =   0.2448980
        k(   13) = (  -0.5714286   0.1649572   0.0000000), wk =   0.1224490
        k(   14) = (  -0.5714286   0.1649572   0.1072663), wk =   0.1224490
        k(   15) = (  -0.5714286   0.0000000   0.0000000), wk =   0.1224490
        k(   16) = (  -0.5714286   0.0000000   0.1072663), wk =   0.1224490

                       cryst. coord.
        k(    1) = (  -0.0000000   0.0000000   0.0000000), wk =   0.0204082
        k(    2) = (   0.0000000   0.0000000  -0.5000000), wk =   0.0204082
        k(    3) = (   0.0000000   0.1428571   0.0000000), wk =   0.1224490
        k(    4) = (   0.0000000   0.1428571  -0.5000000), wk =   0.1224490
        k(    5) = (   0.0000000   0.2857143   0.0000000), wk =   0.1224490
        k(    6) = (   0.0000000   0.2857143  -0.5000000), wk =   0.1224490
        k(    7) = (   0.0000000   0.4285714   0.0000000), wk =   0.1224490
        k(    8) = (   0.0000000   0.4285714  -0.5000000), wk =   0.1224490
        k(    9) = (   0.1428571   0.1428571   0.0000000), wk =   0.1224490
        k(   10) = (   0.1428571   0.1428571  -0.5000000), wk =   0.1224490
        k(   11) = (   0.1428571   0.2857143   0.0000000), wk =   0.2448980
        k(   12) = (   0.1428571   0.2857143  -0.5000000), wk =   0.2448980
        k(   13) = (   0.1428571   0.4285714   0.0000000), wk =   0.1224490
        k(   14) = (   0.1428571   0.4285714  -0.5000000), wk =   0.1224490
        k(   15) = (   0.2857143   0.2857143   0.0000000), wk =   0.1224490
        k(   16) = (   0.2857143   0.2857143  -0.5000000), wk =   0.1224490

     Initial potential from superposition of free atoms

     starting charge   75.98791, renormalised to   76.00000
     Starting wfcs are   52 randomized atomic wfcs
     Checking if some PAW data can be deallocated...

     Self-consistent Calculation

     iteration #  1     ecut=    70.00 Ry     beta= 0.40
     Davidson diagonalization with overlap
     ethr =  1.00E-02,  avg # of iterations =  2.8

     Threshold (ethr) on eigenvalues was too large:
     Diagonalizing with lowered threshold

     Davidson diagonalization with overlap
     ethr =  2.26E-04,  avg # of iterations =  6.1

     total energy              =   -1286.44429975 Ry
     Harris-Foulkes estimate   =   -1286.50046507 Ry
     estimated scf accuracy    <       0.16510652 Ry

[...]

     total energy              =   -1286.46377206 Ry
     Harris-Foulkes estimate   =   -1286.46377212 Ry
     estimated scf accuracy    <       0.00000020 Ry

     iteration # 16     ecut=    70.00 Ry     beta= 0.40
     Davidson diagonalization with overlap
     ethr =  2.66E-10,  avg # of iterations =  3.1

     End of self-consistent calculation

          k = 0.0000 0.0000 0.0000 ( 15101 PWs)   bands (ev):

   -10.3579 -10.3566 -10.2457 -10.2457 -10.2445 -10.2445 -10.1924 -10.1924
   -10.1913 -10.1913 -10.1910 -10.1910 -10.1898 -10.1898 -10.0475 -10.0475
   -10.0463 -10.0463 -10.0316 -10.0301  -9.1972  -9.1617  -9.0042  -8.9656
    -2.0227  -1.9142   0.4938   0.8675   3.3567   3.3567   3.3744   3.3744
     3.4782   3.4782   3.4974   3.4974   3.5442   4.3189   5.5540   6.1066
     6.7988   6.8020   8.6542   8.6542   8.6686   8.6686

     occupation numbers
     1.0000   1.0000   1.0000   1.0000   1.0000   1.0000   1.0000   1.0000
     1.0000   1.0000   1.0000   1.0000   1.0000   1.0000   1.0000   1.0000
     1.0000   1.0000   1.0000   1.0000   1.0000   1.0000   1.0000   1.0000
     1.0000   1.0000   1.0000   1.0000   1.0004   1.0004   1.0005   1.0005
     1.0026   1.0026   1.0033   1.0033   1.0061   0.4495   0.0000   0.0000
     0.0000   0.0000   0.0000   0.0000   0.0000   0.0000

          k =-0.0000 0.0000 0.1073 ( 15042 PWs)   bands (ev):

[...]

          k =-0.5714 0.0000 0.1073 ( 14988 PWs)   bands (ev):

   -10.4256 -10.4245 -10.3568 -10.3558 -10.3242 -10.3228 -10.2512 -10.2500
   -10.1950 -10.1939 -10.1721 -10.1709 -10.1597 -10.1586 -10.0812 -10.0801
   -10.0647 -10.0635  -9.9354  -9.9343  -7.7701  -7.7696  -7.6896  -7.6891
    -2.4562  -2.4555  -1.4308  -1.4305   0.4621   0.4630   0.8482   0.8508
     1.6710   1.6726   2.5535   2.5614   2.7473   2.7592   6.7646   6.7843
     7.1998   7.2213   8.5007   8.5518   9.6065   9.7332

     occupation numbers
     1.0000   1.0000   1.0000   1.0000   1.0000   1.0000   1.0000   1.0000
     1.0000   1.0000   1.0000   1.0000   1.0000   1.0000   1.0000   1.0000
     1.0000   1.0000   1.0000   1.0000   1.0000   1.0000   1.0000   1.0000
     1.0000   1.0000   1.0000   1.0000   1.0000   1.0000   1.0000   1.0000
     1.0000   1.0000   1.0000   1.0000   1.0000   1.0000   0.0000   0.0000
     0.0000   0.0000   0.0000   0.0000   0.0000   0.0000

     the Fermi energy is     4.3398 ev

!    total energy              =   -1286.46377210 Ry
     Harris-Foulkes estimate   =   -1286.46377210 Ry
     estimated scf accuracy    <          6.6E-10 Ry

     The total energy is the sum of the following terms:

     one-electron contribution =    -673.73682770 Ry
     hartree contribution      =     395.19268552 Ry
     xc contribution           =    -271.40744650 Ry
     ewald contribution        =    -291.62302185 Ry
     one-center paw contrib.   =    -444.89220425 Ry
      -> PAW hartree energy AE =     565.85205576 Ry
      -> PAW hartree energy PS =    -558.39763173 Ry
      -> PAW xc energy AE      =    -603.39481763 Ry
      -> PAW xc energy PS      =     151.04818934 Ry
      -> total E_H with PAW    =     402.64710955 Ry
      -> total E_XC with PAW   =    -723.75407479 Ry
     smearing contrib. (-TS)   =       0.00304269 Ry

     convergence has been achieved in  16 iterations

     Forces acting on atoms (cartesian axes, Ry/au):

     atom    1 type  1   force =    -0.00000000    0.00000000   -0.00018703
     atom    2 type  1   force =     0.00000000    0.00000000    0.00018703
     atom    3 type  1   force =    -0.00000000    0.00000000    0.00009676
     atom    4 type  1   force =     0.00000000    0.00000000   -0.00009676
     atom    5 type  2   force =     0.00000000    0.00000000    0.00051725
     atom    6 type  2   force =    -0.00000000    0.00000000   -0.00051725
     atom    7 type  2   force =    -0.00000000   -0.00000000   -0.00059056
     atom    8 type  2   force =     0.00000000    0.00000000    0.00059056
     The non-local contrib.  to forces
     atom    1 type  1   force =    -0.00000000   -0.00000000    0.40441911
     atom    2 type  1   force =    -0.00000000    0.00000000   -0.40441911
     atom    3 type  1   force =    -0.00000000    0.00000000   -0.40428057
     atom    4 type  1   force =    -0.00000000   -0.00000000    0.40428057
     atom    5 type  2   force =    -0.00000000    0.00000000    0.32983105
     atom    6 type  2   force =     0.00000000    0.00000000   -0.32983105
     atom    7 type  2   force =     0.00000000    0.00000000   -0.32980112
     atom    8 type  2   force =     0.00000000    0.00000000    0.32980112
     The ionic contribution  to forces
     atom    1 type  1   force =    -0.00000000    0.00000000   16.72510692
     atom    2 type  1   force =     0.00000000    0.00000000  -16.72510692
     atom    3 type  1   force =     0.00000000   -0.00000000  -16.71862845
     atom    4 type  1   force =    -0.00000000   -0.00000000   16.71862845
     atom    5 type  2   force =     0.00000000   -0.00000000  -13.84527387
     atom    6 type  2   force =    -0.00000000   -0.00000000   13.84527387
     atom    7 type  2   force =     0.00000000    0.00000000   13.85431968
     atom    8 type  2   force =    -0.00000000    0.00000000  -13.85431968
     The local contribution  to forces
     atom    1 type  1   force =    -0.00000000    0.00000000  -17.12062060
     atom    2 type  1   force =    -0.00000000    0.00000000   17.12062060
     atom    3 type  1   force =    -0.00000000   -0.00000008   17.11387862
     atom    4 type  1   force =    -0.00000000   -0.00000008  -17.11387862
     atom    5 type  2   force =    -0.00000000   -0.00000000   13.55281428
     atom    6 type  2   force =    -0.00000000   -0.00000000  -13.55281428
     atom    7 type  2   force =     0.00000000    0.00000000  -13.56194436
     atom    8 type  2   force =     0.00000000    0.00000000   13.56194436
     The core correction contribution to forces
     atom    1 type  1   force =    -0.00000000    0.00000000   -0.00911459
     atom    2 type  1   force =    -0.00000000    0.00000000    0.00911459
     atom    3 type  1   force =    -0.00000000   -0.00000001    0.00912385
     atom    4 type  1   force =    -0.00000000   -0.00000001   -0.00912385
     atom    5 type  2   force =    -0.00000000    0.00000000   -0.03684645
     atom    6 type  2   force =    -0.00000000    0.00000000    0.03684645
     atom    7 type  2   force =     0.00000000   -0.00000000    0.03684197
     atom    8 type  2   force =     0.00000000   -0.00000000   -0.03684197
     The Hubbard contrib.    to forces
     atom    1 type  1   force =     0.00000000    0.00000000    0.00000000
     atom    2 type  1   force =     0.00000000    0.00000000    0.00000000
     atom    3 type  1   force =     0.00000000    0.00000000    0.00000000
     atom    4 type  1   force =     0.00000000    0.00000000    0.00000000
     atom    5 type  2   force =     0.00000000    0.00000000    0.00000000
     atom    6 type  2   force =     0.00000000    0.00000000    0.00000000
     atom    7 type  2   force =     0.00000000    0.00000000    0.00000000
     atom    8 type  2   force =     0.00000000    0.00000000    0.00000000
     The SCF correction term to forces
     atom    1 type  1   force =    -0.00000000   -0.00000000    0.00002214
     atom    2 type  1   force =    -0.00000000   -0.00000000   -0.00002214
     atom    3 type  1   force =    -0.00000000    0.00000000    0.00000331
     atom    4 type  1   force =    -0.00000000    0.00000000   -0.00000331
     atom    5 type  2   force =     0.00000000    0.00000000   -0.00000776
     atom    6 type  2   force =     0.00000000    0.00000000    0.00000776
     atom    7 type  2   force =    -0.00000000   -0.00000000   -0.00000672
     atom    8 type  2   force =    -0.00000000   -0.00000000    0.00000672

     Total force =     0.001149     Total SCF correction =     0.000035

     Computing stress (Cartesian axis) and pressure

          total   stress  (Ry/bohr**3)                   (kbar)     P=   -1.83
  -0.00000999  -0.00000000   0.00000000         -1.47     -0.00      0.00
  -0.00000000  -0.00000999   0.00000000         -0.00     -1.47      0.00
   0.00000000   0.00000000  -0.00001736          0.00      0.00     -2.55

     kinetic stress (kbar)   5816.07      0.00     -0.00
                                0.00   5816.07      0.00
                               -0.00      0.00   5929.24

     local   stress (kbar) -20200.73      0.00      0.00
                                0.00 -20200.73      0.00
                                0.00      0.00  15832.26

     nonloc. stress (kbar)   2814.49     -0.00      0.00
                                0.00   2814.49      0.00
                                0.00     -0.00   2852.27

     hartree stress (kbar)  18470.16      0.00     -0.00
                                0.00  18470.16     -0.00
                               -0.00     -0.00   1371.34

     exc-cor stress (kbar)  11520.82     -0.00     -0.00
                               -0.00  11520.82     -0.00
                               -0.00     -0.00  11520.47

     corecor stress (kbar) -15359.45      0.00      0.00
                                0.00 -15359.45      0.00
                                0.00      0.00 -15362.62

     ewald   stress (kbar)  -3062.83     -0.00     -0.00
                               -0.00  -3062.83     -0.00
                               -0.00     -0.00 -22145.52

     hubbard stress (kbar)      0.00      0.00      0.00
                                0.00      0.00      0.00
                                0.00      0.00      0.00

     london  stress (kbar)      0.00      0.00      0.00
                                0.00      0.00      0.00
                                0.00      0.00      0.00

     DFT-D3  stress (kbar)      0.00      0.00      0.00
                                0.00      0.00      0.00
                                0.00      0.00      0.00

     XDM     stress (kbar)      0.00      0.00      0.00
                                0.00      0.00      0.00
                                0.00      0.00      0.00

     dft-nl  stress (kbar)      0.00      0.00      0.00
                                0.00      0.00      0.00
                                0.00      0.00      0.00

     TS-vdW  stress (kbar)      0.00      0.00      0.00
                                0.00      0.00      0.00
                                0.00      0.00      0.00

     Writing output data file aiida.save/

     General routines

     Parallel routines

     PAW routines

   This run was terminated on:  16:56:38  25Apr2021

   JOB DONE.